DATASET = "thpack3";
INSTANCE = "089";

WIDTH = 233;
HEIGHT = 220;
LENGTH = 587;

NO_OF_SHAPES = 8;
size = [|
  95,92,46 |
  65,60,40 |
  103,62,59 |
  71,65,52 |
  119,87,28 |
  109,92,78 |
  58,54,35 |
  98,73,64 |
|];

verticality = [|
  0,0,1 |
  1,1,1 |
  1,1,1 |
  1,1,1 |
  0,0,1 |
  1,1,1 |
  1,1,1 |
  1,1,1 |
|];

box_count = [
  11,
  12,
  13,
  13,
  13,
  9,
  11,
  8,
];
